37 2000
4 195
4 162
2 110
4 195
10 117
10 164
7 164
7 157
6 144
8 188
6 104
4 112
8 119
6 110
10 104
6 150
6 117
2 162
9 182
9 188
7 182
8 149
5 101
7 124
3 19
3 104
8 128
10 128
2 157
5 104
2 119
5 124
2 149
9 112
9 150
9 101
7 144
